data/MCDM/NO_CORR/GEN_FROM_60/12_ITEMS_1000_GEN/K5012W16.KNP.mps
NAME          BLANK   
ROWS
 N  OBJROW
 L  R0000000
COLUMNS
    C0000000  OBJROW     -547.         R0000000  890.        
    C0000001  OBJROW     -77.          R0000000  40.         
    C0000002  OBJROW     -915.         R0000000  626.        
    C0000003  OBJROW     -399.         R0000000  311.        
    C0000004  OBJROW     -844.         R0000000  470.        
    C0000005  OBJROW     -308.         R0000000  172.        
    C0000006  OBJROW     -410.         R0000000  876.        
    C0000007  OBJROW     -450.         R0000000  948.        
    C0000008  OBJROW     -664.         R0000000  669.        
    C0000009  OBJROW     -790.         R0000000  367.        
    C0000010  OBJROW     -967.         R0000000  253.        
    C0000011  OBJROW     -963.         R0000000  598.        
RHS
    RHS       R0000000  13852.      
BOUNDS
 BV BOUND     C0000000  1.          
 BV BOUND     C0000001  1.          
 BV BOUND     C0000002  1.          
 BV BOUND     C0000003  1.          
 BV BOUND     C0000004  1.          
 BV BOUND     C0000005  1.          
 BV BOUND     C0000006  1.          
 BV BOUND     C0000007  1.          
 BV BOUND     C0000008  1.          
 BV BOUND     C0000009  1.          
 BV BOUND     C0000010  1.          
 BV BOUND     C0000011  1.          
ENDATA
