data/MCDM/NO_CORR/GEN_FROM_60/12_ITEMS_1000_GEN/K5012W16.KNP.txt
N 12
M 13
LC 12
LC 13
LC 14
LC 15
LC 16
LC 17
LC 18
LC 19
LC 20
LC 21
LC 22
LC 23
LR 1
LR 2
LR 3
LR 4
LR 5
LR 6
LR 7
LR 8
LR 9
LR 10
LR 11
LR 12
LR 13
LO -547
LO -77
LO -915
LO -399
LO -844
LO -308
LO -410
LO -450
LO -664
LO -790
LO -967
LO -963
OS 1
IC 252
IC 675
IC 179
IC 343
IC 618
IC 502
IC 166
IC 599
IC 612
IC 68
IC 911
IC 921
IB 2923
